Geographic Exponential Decay
80 119 227 71 68 18 211 222 275 48 317 112 259 104 103 307 213 249 42 158 164 30 180 86 139 114 269 311 20 39 171 36 160 79 94 21 287 96 108 314 105 87 301 185 217 173 306 154 55 212 184 272 192 167 126 250 177 183 225 12 63 248 318 3 310 186 241 194 73 133 84 205 127 221 149 264 252 188 181 238 148
p edge 320 321
e 0 94 15.0
e 1 267 5.0
e 1 0 1.0
e 2 119 92.0
e 2 1 1.0
e 3 61 21.0
e 3 103 3.0
e 3 256 91.0
e 3 2 68.0
e 4 164 99.0
e 4 3 10.0
e 5 137 1.0
e 5 4 4.0
e 6 197 2.0
e 6 5 3.0
e 7 9 3.0
e 7 6 5.0
e 8 170 2.0
e 8 7 1.0
e 10 186 77.0
e 10 8 2.0
e 11 20 70.0
e 11 10 1.0
e 12 36 40.0
e 12 26 94.0
e 12 74 99.0
e 12 11 88.0
e 13 203 2.0
e 13 12 97.0
e 14 269 65.0
e 14 13 1.0
e 15 303 1.0
e 15 14 1.0
e 16 17 2.0
e 16 15 2.0
e 18 317 1.0
e 18 179 89.0
e 18 220 11.0
e 18 16 45.0
e 19 239 2.0
e 19 18 46.0
e 20 46 26.0
e 20 106 36.0
e 21 124 99.0
e 21 22 54.0
e 21 288 90.0
e 21 19 59.0
e 23 82 1.0
e 23 21 39.0
e 24 25 17.0
e 24 23 9.0
e 27 37 1.0
e 27 24 20.0
e 28 318 45.0
e 29 251 6.0
e 29 27 4.0
e 30 309 26.0
e 30 230 23.0
e 30 204 75.0
e 30 29 55.0
e 31 151 1.0
e 31 30 40.0
e 32 69 5.0
e 32 31 4.0
e 33 47 1.0
e 33 32 10.0
e 34 192 20.0
e 35 59 10.0
e 35 33 1.0
e 36 307 14.0
e 36 52 65.0
e 38 123 1.0
e 38 35 2.0
e 39 128 93.0
e 39 87 66.0
e 39 270 4.0
e 39 38 81.0
e 40 182 1.0
e 40 39 76.0
e 41 260 1.0
e 41 40 1.0
e 42 257 40.0
e 42 108 7.0
e 42 174 74.0
e 42 41 96.0
e 43 45 2.0
e 43 42 77.0
e 44 114 41.0
e 48 255 45.0
e 48 217 1.0
e 48 49 23.0
e 50 164 1.0
e 51 194 84.0
e 51 43 9.0
e 53 292 1.0
e 53 51 11.0
e 54 231 3.0
e 54 53 3.0
e 55 261 34.0
e 55 290 79.0
e 55 317 85.0
e 56 57 4.0
e 56 54 1.0
e 58 64 1.0
e 58 56 2.0
e 60 315 5.0
e 60 58 4.0
e 62 311 13.0
e 63 92 40.0
e 63 96 11.0
e 63 109 71.0
e 65 189 1.0
e 65 60 1.0
e 66 122 1.0
e 66 65 3.0
e 67 98 1.0
e 67 66 2.0
e 68 70 16.0
e 68 243 4.0
e 68 304 16.0
e 68 67 92.0
e 71 168 80.0
e 71 262 92.0
e 71 72 60.0
e 71 68 43.0
e 73 75 23.0
e 73 192 88.0
e 73 307 65.0
e 76 313 2.0
e 76 71 56.0
e 77 183 4.0
e 78 79 37.0
e 78 76 1.0
e 79 97 13.0
e 79 80 30.0
e 81 83 11.0
e 81 78 1.0
e 84 217 36.0
e 84 85 59.0
e 84 221 52.0
e 86 144 57.0
e 86 102 32.0
e 86 87 59.0
e 87 100 61.0
e 88 271 1.0
e 88 81 2.0
e 89 225 69.0
e 90 195 2.0
e 90 88 2.0
e 91 93 2.0
e 91 90 1.0
e 94 160 45.0
e 94 146 45.0
e 95 178 3.0
e 95 91 2.0
e 96 307 36.0
e 96 99 95.0
e 101 167 40.0
e 101 95 3.0
e 103 217 82.0
e 103 104 99.0
e 104 291 59.0
e 104 105 76.0
e 105 107 6.0
e 105 310 87.0
e 108 110 71.0
e 108 111 56.0
e 112 282 53.0
e 112 113 77.0
e 112 127 28.0
e 112 101 73.0
e 114 183 44.0
e 114 115 10.0
e 116 171 48.0
e 117 118 17.0
e 117 112 70.0
e 119 120 77.0
e 119 121 63.0
e 125 198 1.0
e 125 117 1.0
e 126 127 99.0
e 126 145 47.0
e 126 129 54.0
e 127 130 75.0
e 131 132 1.0
e 131 125 2.0
e 133 134 82.0
e 133 135 66.0
e 133 136 93.0
e 133 131 2.0
e 138 139 90.0
e 138 133 86.0
e 139 140 51.0
e 139 141 27.0
e 142 302 1.0
e 142 138 5.0
e 143 147 4.0
e 143 142 2.0
e 148 227 63.0
e 148 296 13.0
e 148 272 88.0
e 149 150 52.0
e 149 181 21.0
e 149 209 6.0
e 152 210 1.0
e 152 143 1.0
e 153 154 5.0
e 153 152 2.0
e 154 295 5.0
e 154 263 66.0
e 155 156 1.0
e 155 153 1.0
e 157 158 71.0
e 157 155 5.0
e 158 159 39.0
e 158 253 24.0
e 160 161 16.0
e 160 277 95.0
e 162 293 5.0
e 162 157 1.0
e 163 192 49.0
e 164 165 39.0
e 166 171 41.0
e 167 169 97.0
e 167 171 46.0
e 172 173 43.0
e 172 162 1.0
e 173 175 88.0
e 173 176 52.0
e 177 247 44.0
e 177 305 40.0
e 177 289 59.0
e 177 172 41.0
e 180 181 50.0
e 180 219 51.0
e 180 183 6.0
e 181 184 7.0
e 184 318 38.0
e 184 185 48.0
e 185 186 11.0
e 185 187 100.0
e 186 188 6.0
e 188 264 30.0
e 188 190 98.0
e 191 301 40.0
e 193 194 27.0
e 193 214 34.0
e 194 316 11.0
e 196 199 1.0
e 196 177 77.0
e 200 201 4.0
e 200 196 9.0
e 202 205 47.0
e 202 200 9.0
e 205 294 30.0
e 205 206 70.0
e 207 208 4.0
e 207 202 4.0
e 211 283 39.0
e 211 311 68.0
e 211 212 77.0
e 212 213 24.0
e 212 215 21.0
e 213 216 93.0
e 213 297 67.0
e 218 221 74.0
e 221 222 30.0
e 222 284 82.0
e 222 233 47.0
e 223 224 6.0
e 223 207 12.0
e 225 226 96.0
e 225 317 65.0
e 227 228 34.0
e 227 229 89.0
e 232 241 4.0
e 234 235 1.0
e 234 223 11.0
e 236 237 1.0
e 236 234 1.0
e 238 318 59.0
e 238 240 67.0
e 238 241 70.0
e 241 242 10.0
e 244 245 18.0
e 244 236 10.0
e 246 248 31.0
e 246 244 24.0
e 248 249 87.0
e 248 250 11.0
e 249 250 52.0
e 249 252 15.0
e 250 252 59.0
e 252 265 7.0
e 254 273 5.0
e 254 246 3.0
e 258 259 97.0
e 259 264 21.0
e 259 266 4.0
e 264 268 6.0
e 269 272 78.0
e 269 314 3.0
e 272 274 34.0
e 275 276 65.0
e 275 278 96.0
e 275 319 51.0
e 275 254 96.0
e 278 279 50.0
e 280 281 1.0
e 280 275 97.0
e 285 286 3.0
e 285 280 3.0
e 287 298 15.0
e 287 299 75.0
e 287 300 69.0
e 287 285 49.0
e 301 306 83.0
e 301 308 24.0
e 306 310 62.0
e 306 311 30.0
e 310 312 13.0
